Traveling Salesman Problem/TSP_generados/Aleatorio1620391858_16.tsp
NAME: Aleatorio1620391858_16.tsp
COMMENT: Randomly generated scenario
TYPE: TSP
DIMENSION: 16
EDGE_WEIGHT_TYPE: ATT
NODE_COORD_SECTION
1 36.61 48.2
2 48.53 18.6
3 4.3 36.39
4 13.59 32.36
5 28.58 29.21
6 9.7 16.08
7 7.56 8.41
8 19.71 31.35
9 7.77 6.73
10 39.31 25.74
11 9.37 41.64
12 23.71 2.9
13 26.21 5.8
14 36.87 30.83
15 1.57 39.63
16 31.93 49.35
