Traveling Salesman Problem/TSP_generados/Aleatorio1620391858_16.opt.tour
NAME: Aleatorio1620391858_16.opt.tour
COMMENT: Optimal solution for Aleatorio1620391858_16 (174.3511793932581)
TYPE: TOUR
DIMENSION: 16
TOUR_SECTION
1 14 10 2 13 12 9 7 6 3 15 11 4 8 5 16
-1
EOF
